; benchmark generated from python API
(set-info :status unknown)
(declare-fun x_month () (_ BitVec 32))
(declare-fun x_year () (_ BitVec 32))
(declare-fun x_day () (_ BitVec 32))
(assert
 (let (($x2358 (or (= (_ bv4 32) x_month) (= (_ bv6 32) x_month) (= (_ bv9 32) x_month) (= (_ bv11 32) x_month))))
 (let (($x5941 (and (= (_ bv0 32) (bvsmod x_year (_ bv4 32))) (and (distinct (_ bv0 32) (bvsmod x_year (_ bv100 32))) true))))
 (let ((?x2847 (ite (= (_ bv2 32) x_month) (ite (or $x5941 (= (_ bv0 32) (bvsmod x_year (_ bv400 32)))) (_ bv29 32) (_ bv28 32)) (ite $x2358 (_ bv30 32) (_ bv31 32)))))
 (let (($x3003 (bvsle x_day ?x2847)))
 (let (($x5452 (bvsle (_ bv1 32) x_day)))
 (let (($x4083 (bvsle (_ bv1 32) x_month)))
 (let (($x4710 (bvsge (_ bv12 32) x_month)))
 (let (($x2230 (bvsle (_ bv1901 32) x_year)))
 (or (and (= (_ bv1900 32) x_year) (bvsle (_ bv3 32) x_month) $x4710 $x5452 $x3003) (and $x2230 (bvsge (_ bv2099 32) x_year) $x4083 $x4710 $x5452 $x3003) (and (= (_ bv2100 32) x_year) $x4083 (bvsge (_ bv2 32) x_month) $x5452 $x3003)))))))))))
(assert
 (let (($x4666 (or (bvslt (_ bv1 32) x_month) (and (= (_ bv1 32) x_month) (bvsle (_ bv1 32) x_day)))))
 (let (($x6011 (= (_ bv2023 32) x_year)))
 (or (bvslt (_ bv2023 32) x_year) (and $x6011 $x4666)))))
(assert
 (let (($x2985 (or (bvsgt (_ bv1 32) x_month) (and (= (_ bv1 32) x_month) (bvsge (_ bv31 32) x_day)))))
 (let (($x6011 (= (_ bv2023 32) x_year)))
 (or (bvsgt (_ bv2023 32) x_year) (and $x6011 $x2985)))))
(assert
 (let ((?x1994 (bvadd x_month (bvadd (bvmul (_ bv0 32) (_ bv12 32)) (_ bv0 32)))))
(let ((?x1275 (bvsub (ite (bvuge ?x1994 (_ bv2147483648 32)) (bvsub ?x1994 (_ bv0 32)) ?x1994) (_ bv1 32))))
(let ((?x2752 (bvsmod ?x1275 (_ bv12 32))))
(let ((?x4892 (bvadd ?x2752 (_ bv1 32))))
(let (($x4170 (= (_ bv11 32) ?x4892)))
(let (($x3450 (= (_ bv9 32) ?x4892)))
(let (($x3894 (= (_ bv6 32) ?x4892)))
(let (($x2939 (= (_ bv4 32) ?x4892)))
(let ((?x3140 (bvsdiv ?x1275 (_ bv12 32))))
(let ((?x5802 (ite (and (bvuge ?x1275 (_ bv2147483648 32)) (and (distinct (_ bv0 32) ?x2752) true)) (bvsub ?x3140 (_ bv1 32)) ?x3140)))
(let ((?x3804 (bvadd x_year ?x5802)))
(let (($x2677 (or (and (= (_ bv0 32) (bvsmod ?x3804 (_ bv4 32))) (and (distinct (_ bv0 32) (bvsmod ?x3804 (_ bv100 32))) true)) (= (_ bv0 32) (bvsmod ?x3804 (_ bv400 32))))))
(let (($x5080 (= (_ bv2 32) ?x4892)))
(let ((?x4824 (ite $x5080 (ite $x2677 (_ bv29 32) (_ bv28 32)) (ite (or $x2939 $x3894 $x3450 $x4170) (_ bv30 32) (_ bv31 32)))))
(let (($x4339 (bvsgt (_ bv1 32) x_day)))
(let ((?x4944 (ite $x4339 (_ bv1 32) (ite (bvsgt x_day ?x4824) ?x4824 x_day))))
(let ((?x5054 (ite (bvsgt (_ bv1 32) ?x4944) (_ bv1 32) (ite (bvsgt ?x4944 ?x4824) ?x4824 ?x4944))))
(let ((?x3299 (ite $x5080 (ite $x2677 (_ bv31 32) (_ bv31 32)) (ite (= (_ bv1 32) ?x4892) (ite $x2677 (_ bv0 32) (_ bv0 32)) (_ bv0 32)))))
(let ((?x1564 (ite $x2939 (ite $x2677 (_ bv91 32) (_ bv90 32)) (ite (= (_ bv3 32) ?x4892) (ite $x2677 (_ bv60 32) (_ bv59 32)) ?x3299))))
(let ((?x2116 (ite $x3894 (ite $x2677 (_ bv152 32) (_ bv151 32)) (ite (= (_ bv5 32) ?x4892) (ite $x2677 (_ bv121 32) (_ bv120 32)) ?x1564))))
(let ((?x1290 (ite (= (_ bv8 32) ?x4892) (ite $x2677 (_ bv213 32) (_ bv212 32)) (ite (= (_ bv7 32) ?x4892) (ite $x2677 (_ bv182 32) (_ bv181 32)) ?x2116))))
(let ((?x1567 (ite (= (_ bv10 32) ?x4892) (ite $x2677 (_ bv274 32) (_ bv273 32)) (ite $x3450 (ite $x2677 (_ bv244 32) (_ bv243 32)) ?x1290))))
(let ((?x2086 (ite (= (_ bv12 32) ?x4892) (ite $x2677 (_ bv335 32) (_ bv334 32)) (ite $x4170 (ite $x2677 (_ bv305 32) (_ bv304 32)) ?x1567))))
(let ((?x5440 (bvadd (bvmul (_ bv365 32) (bvsub ?x3804 (_ bv1 32))) (bvsdiv (bvsub ?x3804 (_ bv1 32)) (_ bv4 32)))))
(let ((?x3487 (bvadd (bvsub ?x5440 (bvsdiv (bvsub ?x3804 (_ bv1 32)) (_ bv100 32))) (bvsdiv (bvsub ?x3804 (_ bv1 32)) (_ bv400 32)))))
(let ((?x5848 (bvadd (bvadd (bvsub (bvadd (bvadd ?x3487 ?x2086) (bvsub ?x5054 (_ bv1 32))) (_ bv730179 32)) (_ bv30 32)) (_ bv730179 32))))
(let ((?x3519 (bvsmod ?x5848 (_ bv146097 32))))
(let ((?x2101 (bvsdiv ?x3519 (_ bv36524 32))))
(let ((?x2802 (ite (bvsle (_ bv4 32) ?x2101) (_ bv3 32) ?x2101)))
(let ((?x3763 (bvsub ?x3519 (bvmul ?x2802 (_ bv36524 32)))))
(let ((?x1540 (bvsmod ?x3763 (_ bv1461 32))))
(let ((?x4678 (bvsdiv ?x1540 (_ bv365 32))))
(let ((?x5580 (ite (bvsle (_ bv4 32) ?x4678) (_ bv3 32) ?x4678)))
(let ((?x2445 (bvadd (bvadd (bvmul (bvsdiv ?x5848 (_ bv146097 32)) (_ bv400 32)) (bvmul ?x2802 (_ bv100 32))) (bvmul (bvsdiv ?x3763 (_ bv1461 32)) (_ bv4 32)))))
(let ((?x1974 (bvadd (bvadd ?x2445 ?x5580) (_ bv1 32))))
(let (($x603 (or (and (= (_ bv0 32) (bvsmod ?x1974 (_ bv4 32))) (and (distinct (_ bv0 32) (bvsmod ?x1974 (_ bv100 32))) true)) (= (_ bv0 32) (bvsmod ?x1974 (_ bv400 32))))))
(let ((?x4920 (bvsub ?x1540 (bvmul ?x5580 (_ bv365 32)))))
(let ((?x3968 (ite $x603 (_ bv31 32) (_ bv31 32))))
(let (($x1264 (bvsge ?x4920 ?x3968)))
(let ((?x1605 (ite $x1264 (bvadd (bvsub ?x4920 ?x3968) (_ bv1 32)) (bvadd (bvsub ?x4920 (ite $x603 (_ bv0 32) (_ bv0 32))) (_ bv1 32)))))
(let ((?x4181 (ite $x603 (_ bv60 32) (_ bv59 32))))
(let (($x5723 (bvsge ?x4920 ?x4181)))
(let ((?x3397 (ite $x603 (_ bv91 32) (_ bv90 32))))
(let (($x4214 (bvsge ?x4920 ?x3397)))
(let ((?x5856 (ite $x4214 (bvadd (bvsub ?x4920 ?x3397) (_ bv1 32)) (ite $x5723 (bvadd (bvsub ?x4920 ?x4181) (_ bv1 32)) ?x1605))))
(let ((?x3241 (ite $x603 (_ bv121 32) (_ bv120 32))))
(let (($x4268 (bvsge ?x4920 ?x3241)))
(let ((?x3144 (ite $x603 (_ bv152 32) (_ bv151 32))))
(let (($x4753 (bvsge ?x4920 ?x3144)))
(let ((?x806 (ite $x4753 (bvadd (bvsub ?x4920 ?x3144) (_ bv1 32)) (ite $x4268 (bvadd (bvsub ?x4920 ?x3241) (_ bv1 32)) ?x5856))))
(let ((?x2904 (ite $x603 (_ bv182 32) (_ bv181 32))))
(let (($x4102 (bvsge ?x4920 ?x2904)))
(let ((?x2201 (ite $x603 (_ bv213 32) (_ bv212 32))))
(let (($x4619 (bvsge ?x4920 ?x2201)))
(let ((?x3710 (ite $x4619 (bvadd (bvsub ?x4920 ?x2201) (_ bv1 32)) (ite $x4102 (bvadd (bvsub ?x4920 ?x2904) (_ bv1 32)) ?x806))))
(let ((?x4405 (ite $x603 (_ bv244 32) (_ bv243 32))))
(let (($x5323 (bvsge ?x4920 ?x4405)))
(let ((?x3098 (ite $x603 (_ bv274 32) (_ bv273 32))))
(let (($x2786 (bvsge ?x4920 ?x3098)))
(let ((?x1636 (ite $x2786 (bvadd (bvsub ?x4920 ?x3098) (_ bv1 32)) (ite $x5323 (bvadd (bvsub ?x4920 ?x4405) (_ bv1 32)) ?x3710))))
(let ((?x1875 (ite $x603 (_ bv305 32) (_ bv304 32))))
(let (($x4011 (bvsge ?x4920 ?x1875)))
(let ((?x4380 (ite $x603 (_ bv335 32) (_ bv334 32))))
(let (($x3107 (bvsge ?x4920 ?x4380)))
(let ((?x4091 (ite $x3107 (bvadd (bvsub ?x4920 ?x4380) (_ bv1 32)) (ite $x4011 (bvadd (bvsub ?x4920 ?x1875) (_ bv1 32)) ?x1636))))
(let (($x2381 (= (_ bv0 32) (_ bv30 32))))
(let ((?x5953 (bvadd x_month (bvadd (bvmul (_ bv0 32) (_ bv12 32)) (_ bv1 32)))))
(let ((?x5808 (bvsub (ite (bvuge ?x5953 (_ bv2147483648 32)) (bvsub ?x5953 (_ bv0 32)) ?x5953) (_ bv1 32))))
(let ((?x5250 (bvsmod ?x5808 (_ bv12 32))))
(let ((?x705 (bvadd ?x5250 (_ bv1 32))))
(let (($x826 (= (_ bv11 32) ?x705)))
(let (($x1686 (= (_ bv9 32) ?x705)))
(let (($x4352 (= (_ bv6 32) ?x705)))
(let (($x1664 (= (_ bv4 32) ?x705)))
(let ((?x3430 (bvsdiv ?x5808 (_ bv12 32))))
(let ((?x3291 (ite (and (bvuge ?x5808 (_ bv2147483648 32)) (and (distinct (_ bv0 32) ?x5250) true)) (bvsub ?x3430 (_ bv1 32)) ?x3430)))
(let ((?x4144 (bvadd x_year ?x3291)))
(let (($x2530 (or (and (= (_ bv0 32) (bvsmod ?x4144 (_ bv4 32))) (and (distinct (_ bv0 32) (bvsmod ?x4144 (_ bv100 32))) true)) (= (_ bv0 32) (bvsmod ?x4144 (_ bv400 32))))))
(let (($x972 (= (_ bv2 32) ?x705)))
(let ((?x2501 (ite $x972 (ite $x2530 (_ bv29 32) (_ bv28 32)) (ite (or $x1664 $x4352 $x1686 $x826) (_ bv30 32) (_ bv31 32)))))
(let ((?x2035 (ite $x4339 (_ bv1 32) (ite (bvsgt x_day ?x2501) ?x2501 x_day))))
(let ((?x1259 (ite (bvsgt (_ bv1 32) ?x2035) (_ bv1 32) (ite (bvsgt ?x2035 ?x2501) ?x2501 ?x2035))))
(let ((?x6009 (ite $x972 (ite $x2530 (_ bv31 32) (_ bv31 32)) (ite (= (_ bv1 32) ?x705) (ite $x2530 (_ bv0 32) (_ bv0 32)) (_ bv0 32)))))
(let ((?x5801 (ite $x1664 (ite $x2530 (_ bv91 32) (_ bv90 32)) (ite (= (_ bv3 32) ?x705) (ite $x2530 (_ bv60 32) (_ bv59 32)) ?x6009))))
(let ((?x4297 (ite $x4352 (ite $x2530 (_ bv152 32) (_ bv151 32)) (ite (= (_ bv5 32) ?x705) (ite $x2530 (_ bv121 32) (_ bv120 32)) ?x5801))))
(let ((?x1401 (ite (= (_ bv8 32) ?x705) (ite $x2530 (_ bv213 32) (_ bv212 32)) (ite (= (_ bv7 32) ?x705) (ite $x2530 (_ bv182 32) (_ bv181 32)) ?x4297))))
(let ((?x4301 (ite (= (_ bv10 32) ?x705) (ite $x2530 (_ bv274 32) (_ bv273 32)) (ite $x1686 (ite $x2530 (_ bv244 32) (_ bv243 32)) ?x1401))))
(let ((?x6158 (ite (= (_ bv12 32) ?x705) (ite $x2530 (_ bv335 32) (_ bv334 32)) (ite $x826 (ite $x2530 (_ bv305 32) (_ bv304 32)) ?x4301))))
(let ((?x2832 (bvadd (bvmul (_ bv365 32) (bvsub ?x4144 (_ bv1 32))) (bvsdiv (bvsub ?x4144 (_ bv1 32)) (_ bv4 32)))))
(let ((?x3148 (bvadd (bvsub ?x2832 (bvsdiv (bvsub ?x4144 (_ bv1 32)) (_ bv100 32))) (bvsdiv (bvsub ?x4144 (_ bv1 32)) (_ bv400 32)))))
(let ((?x3865 (bvadd (bvadd (bvsub (bvadd (bvadd ?x3148 ?x6158) (bvsub ?x1259 (_ bv1 32))) (_ bv730179 32)) (_ bv0 32)) (_ bv730179 32))))
(let ((?x5984 (bvsmod ?x3865 (_ bv146097 32))))
(let ((?x1128 (bvsdiv ?x5984 (_ bv36524 32))))
(let ((?x5027 (ite (bvsle (_ bv4 32) ?x1128) (_ bv3 32) ?x1128)))
(let ((?x1490 (bvsub ?x5984 (bvmul ?x5027 (_ bv36524 32)))))
(let ((?x6157 (bvsmod ?x1490 (_ bv1461 32))))
(let ((?x5590 (bvsdiv ?x6157 (_ bv365 32))))
(let ((?x2288 (ite (bvsle (_ bv4 32) ?x5590) (_ bv3 32) ?x5590)))
(let ((?x4186 (bvadd (bvadd (bvmul (bvsdiv ?x3865 (_ bv146097 32)) (_ bv400 32)) (bvmul ?x5027 (_ bv100 32))) (bvmul (bvsdiv ?x1490 (_ bv1461 32)) (_ bv4 32)))))
(let ((?x3664 (bvadd (bvadd ?x4186 ?x2288) (_ bv1 32))))
(let (($x5325 (or (and (= (_ bv0 32) (bvsmod ?x3664 (_ bv4 32))) (and (distinct (_ bv0 32) (bvsmod ?x3664 (_ bv100 32))) true)) (= (_ bv0 32) (bvsmod ?x3664 (_ bv400 32))))))
(let ((?x2127 (bvsub ?x6157 (bvmul ?x2288 (_ bv365 32)))))
(let ((?x3338 (ite $x5325 (_ bv31 32) (_ bv31 32))))
(let (($x5822 (bvsge ?x2127 ?x3338)))
(let ((?x3613 (ite $x5822 (bvadd (bvsub ?x2127 ?x3338) (_ bv1 32)) (bvadd (bvsub ?x2127 (ite $x5325 (_ bv0 32) (_ bv0 32))) (_ bv1 32)))))
(let ((?x5962 (ite $x5325 (_ bv60 32) (_ bv59 32))))
(let (($x5354 (bvsge ?x2127 ?x5962)))
(let ((?x2205 (ite $x5325 (_ bv91 32) (_ bv90 32))))
(let (($x1756 (bvsge ?x2127 ?x2205)))
(let ((?x5653 (ite $x1756 (bvadd (bvsub ?x2127 ?x2205) (_ bv1 32)) (ite $x5354 (bvadd (bvsub ?x2127 ?x5962) (_ bv1 32)) ?x3613))))
(let ((?x5809 (ite $x5325 (_ bv121 32) (_ bv120 32))))
(let (($x1734 (bvsge ?x2127 ?x5809)))
(let ((?x5927 (ite $x5325 (_ bv152 32) (_ bv151 32))))
(let (($x1976 (bvsge ?x2127 ?x5927)))
(let ((?x3307 (ite $x1976 (bvadd (bvsub ?x2127 ?x5927) (_ bv1 32)) (ite $x1734 (bvadd (bvsub ?x2127 ?x5809) (_ bv1 32)) ?x5653))))
(let ((?x1057 (ite $x5325 (_ bv182 32) (_ bv181 32))))
(let (($x1646 (bvsge ?x2127 ?x1057)))
(let ((?x5934 (ite $x5325 (_ bv213 32) (_ bv212 32))))
(let (($x647 (bvsge ?x2127 ?x5934)))
(let ((?x2048 (ite $x647 (bvadd (bvsub ?x2127 ?x5934) (_ bv1 32)) (ite $x1646 (bvadd (bvsub ?x2127 ?x1057) (_ bv1 32)) ?x3307))))
(let ((?x5955 (ite $x5325 (_ bv244 32) (_ bv243 32))))
(let (($x3058 (bvsge ?x2127 ?x5955)))
(let ((?x5946 (ite $x5325 (_ bv274 32) (_ bv273 32))))
(let (($x5722 (bvsge ?x2127 ?x5946)))
(let ((?x4542 (ite $x5722 (bvadd (bvsub ?x2127 ?x5946) (_ bv1 32)) (ite $x3058 (bvadd (bvsub ?x2127 ?x5955) (_ bv1 32)) ?x2048))))
(let ((?x4815 (ite $x5325 (_ bv305 32) (_ bv304 32))))
(let (($x3454 (bvsge ?x2127 ?x4815)))
(let ((?x5525 (ite $x5325 (_ bv335 32) (_ bv334 32))))
(let (($x4382 (bvsge ?x2127 ?x5525)))
(let ((?x1794 (ite $x4382 (bvadd (bvsub ?x2127 ?x5525) (_ bv1 32)) (ite $x3454 (bvadd (bvsub ?x2127 ?x4815) (_ bv1 32)) ?x4542))))
(let (($x4539 (= (_ bv0 32) (_ bv0 32))))
(let ((?x6061 (ite $x4753 (_ bv6 32) (ite $x4268 (_ bv5 32) (ite $x4214 (_ bv4 32) (ite $x5723 (_ bv3 32) (ite $x1264 (_ bv2 32) (_ bv1 32))))))))
(let ((?x2979 (ite $x4011 (_ bv11 32) (ite $x2786 (_ bv10 32) (ite $x5323 (_ bv9 32) (ite $x4619 (_ bv8 32) (ite $x4102 (_ bv7 32) ?x6061)))))))
(let ((?x4137 (ite $x3107 (_ bv12 32) ?x2979)))
(let ((?x5747 (ite $x1976 (_ bv6 32) (ite $x1734 (_ bv5 32) (ite $x1756 (_ bv4 32) (ite $x5354 (_ bv3 32) (ite $x5822 (_ bv2 32) (_ bv1 32))))))))
(let ((?x4205 (ite $x3454 (_ bv11 32) (ite $x5722 (_ bv10 32) (ite $x3058 (_ bv9 32) (ite $x647 (_ bv8 32) (ite $x1646 (_ bv7 32) ?x5747)))))))
(let (($x4878 (and (= (ite $x4539 ?x4144 ?x3664) (ite $x2381 ?x3804 ?x1974)) (= (ite $x4539 ?x705 (ite $x4382 (_ bv12 32) ?x4205)) (ite $x2381 ?x4892 ?x4137)) (= (ite $x4539 ?x1259 ?x1794) (ite $x2381 ?x5054 ?x4091)))))
(not $x4878)))))))))))))))))))))))))))))))))))))))))))))))))))))))))))))))))))))))))))))))))))))))))))))))))))))))))))))))))))))))))))))))))))))))))))
(check-sat)
